c Standarized MaxSat Instance
c{
c "sha1sum": "a44ecffbc5cffc7b858a23e667f187607ad4d79b",
c "nvars": 40,
c "ncls": 1188,
c "nhards": 0,
c "nhard_len_stats":
c    { "min": 0, "max": 0, "ave": 0.00,
c      "stddev": 0.00 },
c "nsofts": 1188,
c "nsoft_len_stats":
c    { "min": 2, "max": 2, "ave": 2.00,
c      "stddev": 0.00 },
c "nsoft_wts": 10,
c "soft_wt_stats":
c    { "min": 1, "max": 10, "ave": 5.69,
c      "stddev": 2.81 }
c}
c------------------------------------------------------------
c FILE:  brock400_2.b
c
c Graph Generator
c
c By: Mark Brockington (brock@cs.ualberta.ca)
c and Joe Culberson (joe@cs.ualberta.ca)
c
c Graph Size:400, Clique Size: 29
c Seed:0, Edge Density:  0.75000
c Depth 1 Hiding
c
c Clique Elements are:
c 133 17 92 177 38 19 233 387 84 134 
c 303 251 206 347 220 107 89 310 275 185 
c 91 259 67 141 379 261 149 364 72 
c
c Estimated Size of Uncompressed File:   0.6MB
c
p wcnf 40 1188 6755
9 1 2 0
9 -1 -2 0
4 1 3 0
4 -1 -3 0
8 1 4 0
8 -1 -4 0
8 1 5 0
8 -1 -5 0
10 1 6 0
10 -1 -6 0
2 1 9 0
2 -1 -9 0
4 1 15 0
4 -1 -15 0
8 1 16 0
8 -1 -16 0
3 1 19 0
3 -1 -19 0
6 1 22 0
6 -1 -22 0
5 1 24 0
5 -1 -24 0
7 1 25 0
7 -1 -25 0
4 1 27 0
4 -1 -27 0
6 1 28 0
6 -1 -28 0
10 1 29 0
10 -1 -29 0
10 1 30 0
10 -1 -30 0
7 1 31 0
7 -1 -31 0
8 1 32 0
8 -1 -32 0
2 1 33 0
2 -1 -33 0
7 1 35 0
7 -1 -35 0
1 1 36 0
1 -1 -36 0
3 1 38 0
3 -1 -38 0
2 1 40 0
2 -1 -40 0
9 2 3 0
9 -2 -3 0
2 2 4 0
2 -2 -4 0
5 2 5 0
5 -2 -5 0
2 2 6 0
2 -2 -6 0
2 2 11 0
2 -2 -11 0
10 2 12 0
10 -2 -12 0
3 2 13 0
3 -2 -13 0
6 2 14 0
6 -2 -14 0
9 2 15 0
9 -2 -15 0
7 2 16 0
7 -2 -16 0
3 2 18 0
3 -2 -18 0
7 2 19 0
7 -2 -19 0
6 2 20 0
6 -2 -20 0
5 2 21 0
5 -2 -21 0
10 2 22 0
10 -2 -22 0
3 2 23 0
3 -2 -23 0
8 2 24 0
8 -2 -24 0
6 2 25 0
6 -2 -25 0
8 2 26 0
8 -2 -26 0
5 2 27 0
5 -2 -27 0
9 2 29 0
9 -2 -29 0
3 2 30 0
3 -2 -30 0
4 2 31 0
4 -2 -31 0
9 2 33 0
9 -2 -33 0
10 2 34 0
10 -2 -34 0
1 2 35 0
1 -2 -35 0
10 2 36 0
10 -2 -36 0
6 2 37 0
6 -2 -37 0
1 2 38 0
1 -2 -38 0
2 2 39 0
2 -2 -39 0
7 2 40 0
7 -2 -40 0
9 3 4 0
9 -3 -4 0
4 3 5 0
4 -3 -5 0
1 3 8 0
1 -3 -8 0
1 3 10 0
1 -3 -10 0
5 3 11 0
5 -3 -11 0
1 3 12 0
1 -3 -12 0
3 3 13 0
3 -3 -13 0
10 3 14 0
10 -3 -14 0
10 3 17 0
10 -3 -17 0
9 3 19 0
9 -3 -19 0
3 3 20 0
3 -3 -20 0
6 3 21 0
6 -3 -21 0
4 3 23 0
4 -3 -23 0
8 3 25 0
8 -3 -25 0
6 3 26 0
6 -3 -26 0
7 3 29 0
7 -3 -29 0
6 3 30 0
6 -3 -30 0
1 3 32 0
1 -3 -32 0
5 3 33 0
5 -3 -33 0
10 3 34 0
10 -3 -34 0
10 3 35 0
10 -3 -35 0
8 3 36 0
8 -3 -36 0
3 3 37 0
3 -3 -37 0
8 3 39 0
8 -3 -39 0
7 3 40 0
7 -3 -40 0
4 4 7 0
4 -4 -7 0
7 4 8 0
7 -4 -8 0
2 4 9 0
2 -4 -9 0
5 4 10 0
5 -4 -10 0
9 4 13 0
9 -4 -13 0
9 4 15 0
9 -4 -15 0
4 4 16 0
4 -4 -16 0
3 4 17 0
3 -4 -17 0
9 4 18 0
9 -4 -18 0
4 4 19 0
4 -4 -19 0
7 4 20 0
7 -4 -20 0
10 4 21 0
10 -4 -21 0
6 4 22 0
6 -4 -22 0
7 4 23 0
7 -4 -23 0
9 4 24 0
9 -4 -24 0
5 4 25 0
5 -4 -25 0
10 4 26 0
10 -4 -26 0
4 4 27 0
4 -4 -27 0
9 4 28 0
9 -4 -28 0
7 4 29 0
7 -4 -29 0
10 4 30 0
10 -4 -30 0
5 4 32 0
5 -4 -32 0
3 4 33 0
3 -4 -33 0
10 4 34 0
10 -4 -34 0
10 4 35 0
10 -4 -35 0
2 4 37 0
2 -4 -37 0
9 4 38 0
9 -4 -38 0
7 4 39 0
7 -4 -39 0
5 4 40 0
5 -4 -40 0
7 5 6 0
7 -5 -6 0
3 5 7 0
3 -5 -7 0
8 5 8 0
8 -5 -8 0
4 5 9 0
4 -5 -9 0
5 5 10 0
5 -5 -10 0
3 5 13 0
3 -5 -13 0
2 5 14 0
2 -5 -14 0
3 5 15 0
3 -5 -15 0
6 5 16 0
6 -5 -16 0
5 5 18 0
5 -5 -18 0
2 5 19 0
2 -5 -19 0
10 5 20 0
10 -5 -20 0
2 5 21 0
2 -5 -21 0
2 5 22 0
2 -5 -22 0
5 5 24 0
5 -5 -24 0
8 5 25 0
8 -5 -25 0
10 5 26 0
10 -5 -26 0
10 5 27 0
10 -5 -27 0
7 5 28 0
7 -5 -28 0
4 5 29 0
4 -5 -29 0
8 5 30 0
8 -5 -30 0
4 5 31 0
4 -5 -31 0
3 5 33 0
3 -5 -33 0
3 5 35 0
3 -5 -35 0
6 5 36 0
6 -5 -36 0
3 5 37 0
3 -5 -37 0
2 5 38 0
2 -5 -38 0
8 5 39 0
8 -5 -39 0
2 6 7 0
2 -6 -7 0
8 6 9 0
8 -6 -9 0
2 6 10 0
2 -6 -10 0
8 6 11 0
8 -6 -11 0
1 6 12 0
1 -6 -12 0
10 6 13 0
10 -6 -13 0
1 6 14 0
1 -6 -14 0
6 6 15 0
6 -6 -15 0
2 6 16 0
2 -6 -16 0
3 6 17 0
3 -6 -17 0
8 6 20 0
8 -6 -20 0
8 6 21 0
8 -6 -21 0
7 6 22 0
7 -6 -22 0
10 6 23 0
10 -6 -23 0
7 6 24 0
7 -6 -24 0
8 6 25 0
8 -6 -25 0
1 6 29 0
1 -6 -29 0
2 6 30 0
2 -6 -30 0
6 6 31 0
6 -6 -31 0
1 6 32 0
1 -6 -32 0
1 6 33 0
1 -6 -33 0
3 6 35 0
3 -6 -35 0
5 6 36 0
5 -6 -36 0
9 6 37 0
9 -6 -37 0
6 6 38 0
6 -6 -38 0
8 6 39 0
8 -6 -39 0
1 6 40 0
1 -6 -40 0
2 7 9 0
2 -7 -9 0
10 7 10 0
10 -7 -10 0
3 7 11 0
3 -7 -11 0
9 7 12 0
9 -7 -12 0
2 7 13 0
2 -7 -13 0
10 7 14 0
10 -7 -14 0
1 7 15 0
1 -7 -15 0
9 7 16 0
9 -7 -16 0
1 7 17 0
1 -7 -17 0
1 7 18 0
1 -7 -18 0
10 7 19 0
10 -7 -19 0
6 7 20 0
6 -7 -20 0
2 7 21 0
2 -7 -21 0
2 7 22 0
2 -7 -22 0
4 7 23 0
4 -7 -23 0
10 7 24 0
10 -7 -24 0
9 7 25 0
9 -7 -25 0
4 7 26 0
4 -7 -26 0
6 7 27 0
6 -7 -27 0
6 7 29 0
6 -7 -29 0
5 7 30 0
5 -7 -30 0
7 7 31 0
7 -7 -31 0
1 7 32 0
1 -7 -32 0
6 7 33 0
6 -7 -33 0
8 7 35 0
8 -7 -35 0
4 7 36 0
4 -7 -36 0
10 7 37 0
10 -7 -37 0
6 7 38 0
6 -7 -38 0
9 7 39 0
9 -7 -39 0
8 7 40 0
8 -7 -40 0
7 8 9 0
7 -8 -9 0
1 8 10 0
1 -8 -10 0
8 8 11 0
8 -8 -11 0
9 8 12 0
9 -8 -12 0
10 8 13 0
10 -8 -13 0
9 8 14 0
9 -8 -14 0
9 8 15 0
9 -8 -15 0
10 8 16 0
10 -8 -16 0
8 8 18 0
8 -8 -18 0
10 8 19 0
10 -8 -19 0
10 8 21 0
10 -8 -21 0
7 8 22 0
7 -8 -22 0
5 8 23 0
5 -8 -23 0
2 8 25 0
2 -8 -25 0
9 8 26 0
9 -8 -26 0
9 8 28 0
9 -8 -28 0
1 8 29 0
1 -8 -29 0
7 8 30 0
7 -8 -30 0
3 8 31 0
3 -8 -31 0
7 8 32 0
7 -8 -32 0
3 8 33 0
3 -8 -33 0
8 8 34 0
8 -8 -34 0
4 8 35 0
4 -8 -35 0
4 8 36 0
4 -8 -36 0
3 8 37 0
3 -8 -37 0
1 8 38 0
1 -8 -38 0
7 8 39 0
7 -8 -39 0
3 8 40 0
3 -8 -40 0
7 9 10 0
7 -9 -10 0
6 9 11 0
6 -9 -11 0
10 9 12 0
10 -9 -12 0
3 9 13 0
3 -9 -13 0
6 9 14 0
6 -9 -14 0
8 9 16 0
8 -9 -16 0
2 9 20 0
2 -9 -20 0
5 9 21 0
5 -9 -21 0
6 9 22 0
6 -9 -22 0
10 9 23 0
10 -9 -23 0
5 9 24 0
5 -9 -24 0
4 9 25 0
4 -9 -25 0
9 9 26 0
9 -9 -26 0
5 9 27 0
5 -9 -27 0
1 9 31 0
1 -9 -31 0
4 9 32 0
4 -9 -32 0
6 9 33 0
6 -9 -33 0
9 9 34 0
9 -9 -34 0
3 9 35 0
3 -9 -35 0
7 9 36 0
7 -9 -36 0
5 9 37 0
5 -9 -37 0
5 9 38 0
5 -9 -38 0
4 9 39 0
4 -9 -39 0
8 9 40 0
8 -9 -40 0
2 10 11 0
2 -10 -11 0
7 10 12 0
7 -10 -12 0
1 10 13 0
1 -10 -13 0
5 10 14 0
5 -10 -14 0
7 10 15 0
7 -10 -15 0
7 10 18 0
7 -10 -18 0
7 10 20 0
7 -10 -20 0
4 10 21 0
4 -10 -21 0
2 10 22 0
2 -10 -22 0
7 10 23 0
7 -10 -23 0
7 10 24 0
7 -10 -24 0
8 10 25 0
8 -10 -25 0
4 10 28 0
4 -10 -28 0
8 10 29 0
8 -10 -29 0
3 10 30 0
3 -10 -30 0
10 10 31 0
10 -10 -31 0
7 10 32 0
7 -10 -32 0
7 10 33 0
7 -10 -33 0
3 10 34 0
3 -10 -34 0
6 10 35 0
6 -10 -35 0
1 10 36 0
1 -10 -36 0
3 10 37 0
3 -10 -37 0
9 10 38 0
9 -10 -38 0
7 10 39 0
7 -10 -39 0
1 10 40 0
1 -10 -40 0
2 11 12 0
2 -11 -12 0
4 11 13 0
4 -11 -13 0
6 11 14 0
6 -11 -14 0
6 11 15 0
6 -11 -15 0
7 11 16 0
7 -11 -16 0
3 11 17 0
3 -11 -17 0
8 11 18 0
8 -11 -18 0
3 11 19 0
3 -11 -19 0
4 11 20 0
4 -11 -20 0
2 11 21 0
2 -11 -21 0
10 11 22 0
10 -11 -22 0
1 11 23 0
1 -11 -23 0
9 11 24 0
9 -11 -24 0
4 11 25 0
4 -11 -25 0
2 11 26 0
2 -11 -26 0
5 11 27 0
5 -11 -27 0
10 11 28 0
10 -11 -28 0
10 11 29 0
10 -11 -29 0
8 11 30 0
8 -11 -30 0
7 11 31 0
7 -11 -31 0
2 11 32 0
2 -11 -32 0
7 11 33 0
7 -11 -33 0
4 11 35 0
4 -11 -35 0
8 11 36 0
8 -11 -36 0
10 11 37 0
10 -11 -37 0
10 11 38 0
10 -11 -38 0
9 11 39 0
9 -11 -39 0
3 11 40 0
3 -11 -40 0
8 12 14 0
8 -12 -14 0
6 12 15 0
6 -12 -15 0
3 12 17 0
3 -12 -17 0
10 12 18 0
10 -12 -18 0
10 12 19 0
10 -12 -19 0
9 12 20 0
9 -12 -20 0
5 12 21 0
5 -12 -21 0
6 12 23 0
6 -12 -23 0
2 12 24 0
2 -12 -24 0
3 12 25 0
3 -12 -25 0
9 12 26 0
9 -12 -26 0
5 12 27 0
5 -12 -27 0
5 12 28 0
5 -12 -28 0
9 12 29 0
9 -12 -29 0
5 12 31 0
5 -12 -31 0
3 12 32 0
3 -12 -32 0
2 12 33 0
2 -12 -33 0
7 12 34 0
7 -12 -34 0
8 12 35 0
8 -12 -35 0
2 12 36 0
2 -12 -36 0
7 12 39 0
7 -12 -39 0
5 12 40 0
5 -12 -40 0
9 13 14 0
9 -13 -14 0
8 13 15 0
8 -13 -15 0
2 13 18 0
2 -13 -18 0
3 13 19 0
3 -13 -19 0
5 13 20 0
5 -13 -20 0
2 13 21 0
2 -13 -21 0
2 13 22 0
2 -13 -22 0
4 13 23 0
4 -13 -23 0
4 13 24 0
4 -13 -24 0
10 13 26 0
10 -13 -26 0
10 13 27 0
10 -13 -27 0
7 13 29 0
7 -13 -29 0
9 13 30 0
9 -13 -30 0
9 13 31 0
9 -13 -31 0
5 13 33 0
5 -13 -33 0
4 13 35 0
4 -13 -35 0
4 13 36 0
4 -13 -36 0
7 13 37 0
7 -13 -37 0
7 13 38 0
7 -13 -38 0
3 13 39 0
3 -13 -39 0
2 14 16 0
2 -14 -16 0
1 14 17 0
1 -14 -17 0
2 14 18 0
2 -14 -18 0
7 14 19 0
7 -14 -19 0
4 14 21 0
4 -14 -21 0
3 14 22 0
3 -14 -22 0
4 14 23 0
4 -14 -23 0
1 14 25 0
1 -14 -25 0
5 14 27 0
5 -14 -27 0
10 14 29 0
10 -14 -29 0
6 14 30 0
6 -14 -30 0
3 14 31 0
3 -14 -31 0
7 14 32 0
7 -14 -32 0
8 14 33 0
8 -14 -33 0
5 14 34 0
5 -14 -34 0
2 14 35 0
2 -14 -35 0
9 14 36 0
9 -14 -36 0
7 14 37 0
7 -14 -37 0
6 14 38 0
6 -14 -38 0
3 14 39 0
3 -14 -39 0
6 14 40 0
6 -14 -40 0
5 15 18 0
5 -15 -18 0
9 15 19 0
9 -15 -19 0
4 15 21 0
4 -15 -21 0
3 15 22 0
3 -15 -22 0
4 15 23 0
4 -15 -23 0
8 15 24 0
8 -15 -24 0
7 15 25 0
7 -15 -25 0
10 15 26 0
10 -15 -26 0
4 15 28 0
4 -15 -28 0
9 15 29 0
9 -15 -29 0
2 15 30 0
2 -15 -30 0
5 15 31 0
5 -15 -31 0
1 15 32 0
1 -15 -32 0
8 15 35 0
8 -15 -35 0
8 15 37 0
8 -15 -37 0
3 15 38 0
3 -15 -38 0
2 15 39 0
2 -15 -39 0
9 15 40 0
9 -15 -40 0
8 16 17 0
8 -16 -17 0
1 16 18 0
1 -16 -18 0
5 16 19 0
5 -16 -19 0
10 16 20 0
10 -16 -20 0
8 16 22 0
8 -16 -22 0
3 16 24 0
3 -16 -24 0
5 16 25 0
5 -16 -25 0
9 16 26 0
9 -16 -26 0
1 16 28 0
1 -16 -28 0
1 16 29 0
1 -16 -29 0
4 16 30 0
4 -16 -30 0
4 16 32 0
4 -16 -32 0
7 16 34 0
7 -16 -34 0
9 16 35 0
9 -16 -35 0
2 16 38 0
2 -16 -38 0
1 16 39 0
1 -16 -39 0
1 16 40 0
1 -16 -40 0
5 17 18 0
5 -17 -18 0
8 17 19 0
8 -17 -19 0
7 17 22 0
7 -17 -22 0
5 17 23 0
5 -17 -23 0
2 17 24 0
2 -17 -24 0
6 17 25 0
6 -17 -25 0
6 17 26 0
6 -17 -26 0
6 17 27 0
6 -17 -27 0
6 17 28 0
6 -17 -28 0
4 17 29 0
4 -17 -29 0
4 17 30 0
4 -17 -30 0
9 17 31 0
9 -17 -31 0
5 17 34 0
5 -17 -34 0
2 17 35 0
2 -17 -35 0
7 17 36 0
7 -17 -36 0
6 17 38 0
6 -17 -38 0
7 17 40 0
7 -17 -40 0
6 18 19 0
6 -18 -19 0
3 18 20 0
3 -18 -20 0
9 18 21 0
9 -18 -21 0
1 18 22 0
1 -18 -22 0
1 18 23 0
1 -18 -23 0
10 18 24 0
10 -18 -24 0
2 18 25 0
2 -18 -25 0
5 18 26 0
5 -18 -26 0
3 18 27 0
3 -18 -27 0
9 18 28 0
9 -18 -28 0
3 18 30 0
3 -18 -30 0
4 18 31 0
4 -18 -31 0
9 18 32 0
9 -18 -32 0
4 18 33 0
4 -18 -33 0
9 18 34 0
9 -18 -34 0
7 18 35 0
7 -18 -35 0
1 18 36 0
1 -18 -36 0
3 18 37 0
3 -18 -37 0
8 18 38 0
8 -18 -38 0
7 18 39 0
7 -18 -39 0
9 19 21 0
9 -19 -21 0
4 19 23 0
4 -19 -23 0
3 19 24 0
3 -19 -24 0
2 19 25 0
2 -19 -25 0
7 19 26 0
7 -19 -26 0
2 19 27 0
2 -19 -27 0
7 19 28 0
7 -19 -28 0
8 19 30 0
8 -19 -30 0
8 19 33 0
8 -19 -33 0
3 19 34 0
3 -19 -34 0
5 19 36 0
5 -19 -36 0
4 19 37 0
4 -19 -37 0
5 19 38 0
5 -19 -38 0
3 19 39 0
3 -19 -39 0
4 19 40 0
4 -19 -40 0
6 20 21 0
6 -20 -21 0
2 20 24 0
2 -20 -24 0
6 20 25 0
6 -20 -25 0
1 20 26 0
1 -20 -26 0
4 20 29 0
4 -20 -29 0
4 20 31 0
4 -20 -31 0
4 20 32 0
4 -20 -32 0
8 20 33 0
8 -20 -33 0
3 20 35 0
3 -20 -35 0
7 20 37 0
7 -20 -37 0
6 21 22 0
6 -21 -22 0
10 21 23 0
10 -21 -23 0
7 21 25 0
7 -21 -25 0
9 21 26 0
9 -21 -26 0
7 21 27 0
7 -21 -27 0
4 21 29 0
4 -21 -29 0
7 21 30 0
7 -21 -30 0
1 21 33 0
1 -21 -33 0
6 21 36 0
6 -21 -36 0
9 21 37 0
9 -21 -37 0
7 21 39 0
7 -21 -39 0
7 21 40 0
7 -21 -40 0
6 22 24 0
6 -22 -24 0
5 22 25 0
5 -22 -25 0
4 22 27 0
4 -22 -27 0
8 22 28 0
8 -22 -28 0
9 22 29 0
9 -22 -29 0
7 22 30 0
7 -22 -30 0
2 22 31 0
2 -22 -31 0
1 22 32 0
1 -22 -32 0
1 22 35 0
1 -22 -35 0
7 22 36 0
7 -22 -36 0
2 22 40 0
2 -22 -40 0
7 23 25 0
7 -23 -25 0
8 23 27 0
8 -23 -27 0
6 23 28 0
6 -23 -28 0
1 23 29 0
1 -23 -29 0
1 23 30 0
1 -23 -30 0
4 23 31 0
4 -23 -31 0
3 23 32 0
3 -23 -32 0
7 23 33 0
7 -23 -33 0
9 23 34 0
9 -23 -34 0
2 23 35 0
2 -23 -35 0
4 23 36 0
4 -23 -36 0
7 23 37 0
7 -23 -37 0
9 23 39 0
9 -23 -39 0
7 23 40 0
7 -23 -40 0
4 24 25 0
4 -24 -25 0
9 24 26 0
9 -24 -26 0
2 24 27 0
2 -24 -27 0
2 24 29 0
2 -24 -29 0
6 24 30 0
6 -24 -30 0
9 24 32 0
9 -24 -32 0
7 24 35 0
7 -24 -35 0
10 24 37 0
10 -24 -37 0
2 24 38 0
2 -24 -38 0
4 24 39 0
4 -24 -39 0
8 24 40 0
8 -24 -40 0
9 25 26 0
9 -25 -26 0
6 25 27 0
6 -25 -27 0
8 25 28 0
8 -25 -28 0
10 25 30 0
10 -25 -30 0
3 25 31 0
3 -25 -31 0
10 25 32 0
10 -25 -32 0
6 25 33 0
6 -25 -33 0
10 25 34 0
10 -25 -34 0
5 25 39 0
5 -25 -39 0
6 26 27 0
6 -26 -27 0
10 26 28 0
10 -26 -28 0
8 26 29 0
8 -26 -29 0
9 26 33 0
9 -26 -33 0
6 26 34 0
6 -26 -34 0
7 26 36 0
7 -26 -36 0
10 26 37 0
10 -26 -37 0
10 26 38 0
10 -26 -38 0
4 26 39 0
4 -26 -39 0
9 26 40 0
9 -26 -40 0
6 27 28 0
6 -27 -28 0
7 27 29 0
7 -27 -29 0
8 27 31 0
8 -27 -31 0
8 27 32 0
8 -27 -32 0
8 27 33 0
8 -27 -33 0
3 27 34 0
3 -27 -34 0
7 27 36 0
7 -27 -36 0
5 27 37 0
5 -27 -37 0
2 27 39 0
2 -27 -39 0
8 27 40 0
8 -27 -40 0
9 28 30 0
9 -28 -30 0
9 28 31 0
9 -28 -31 0
7 28 32 0
7 -28 -32 0
5 28 33 0
5 -28 -33 0
7 28 34 0
7 -28 -34 0
6 28 35 0
6 -28 -35 0
7 28 36 0
7 -28 -36 0
6 28 37 0
6 -28 -37 0
2 28 38 0
2 -28 -38 0
6 28 39 0
6 -28 -39 0
1 28 40 0
1 -28 -40 0
8 29 32 0
8 -29 -32 0
6 29 33 0
6 -29 -33 0
9 29 34 0
9 -29 -34 0
6 29 35 0
6 -29 -35 0
2 29 36 0
2 -29 -36 0
5 29 37 0
5 -29 -37 0
6 29 38 0
6 -29 -38 0
1 29 39 0
1 -29 -39 0
9 30 31 0
9 -30 -31 0
4 30 34 0
4 -30 -34 0
7 30 35 0
7 -30 -35 0
5 30 36 0
5 -30 -36 0
2 30 37 0
2 -30 -37 0
5 30 39 0
5 -30 -39 0
3 30 40 0
3 -30 -40 0
5 31 33 0
5 -31 -33 0
1 31 34 0
1 -31 -34 0
8 31 36 0
8 -31 -36 0
6 31 39 0
6 -31 -39 0
9 31 40 0
9 -31 -40 0
6 32 33 0
6 -32 -33 0
5 32 34 0
5 -32 -34 0
5 32 35 0
5 -32 -35 0
10 32 36 0
10 -32 -36 0
1 32 37 0
1 -32 -37 0
1 32 38 0
1 -32 -38 0
7 32 39 0
7 -32 -39 0
6 33 35 0
6 -33 -35 0
3 33 36 0
3 -33 -36 0
3 33 38 0
3 -33 -38 0
7 33 40 0
7 -33 -40 0
10 34 35 0
10 -34 -35 0
8 34 36 0
8 -34 -36 0
5 34 37 0
5 -34 -37 0
5 34 38 0
5 -34 -38 0
9 34 39 0
9 -34 -39 0
10 35 36 0
10 -35 -36 0
10 35 37 0
10 -35 -37 0
9 35 38 0
9 -35 -38 0
8 35 39 0
8 -35 -39 0
4 35 40 0
4 -35 -40 0
6 36 37 0
6 -36 -37 0
3 36 39 0
3 -36 -39 0
5 36 40 0
5 -36 -40 0
10 37 38 0
10 -37 -38 0
5 37 40 0
5 -37 -40 0
9 38 39 0
9 -38 -39 0
10 38 40 0
10 -38 -40 0
